(declare-const a Real)
(declare-const b Real)
(declare-const c Real)
(assert (= (+ a b c) 3))
(assert (> a 0))
(assert (> b 0))
(assert (> c 0))
(assert (not (<= (+ (* -108 (pow (+ a b c) 4)) (* (pow (+ (* 729 (pow a 2)) (* 729 (pow b 2)) (* 729 (pow c 2))) -1) (pow (+ (* 729 (pow a 2) (+ b c)) (* 729 (pow b 2) (+ a c)) (* 729 (pow c 2) (+ a b))) 2))) 0)))
(check-sat)
(get-model)
(exit)